unknown
(model
; cardinality of BoundSet is 1
(declare-sort BoundSet 0)
; rep: @uc_BoundSet_0
; cardinality of UnboundSet is 1
(declare-sort UnboundSet 0)
(declare-fun groundTerm_2 () UnboundSet)
(define-fun IsInRedCoat ((BOUND_VARIABLE_406 BoundSet)) Bool true)
(define-fun IsInBlueHeadWrap ((BOUND_VARIABLE_406 BoundSet)) Bool true)
(define-fun IsInJeans ((BOUND_VARIABLE_406 BoundSet)) Bool true)
(define-fun IsMakingSnowAngel ((BOUND_VARIABLE_406 BoundSet)) Bool true)
(define-fun IsOutside ((BOUND_VARIABLE_406 BoundSet)) Bool false)
(define-fun PlaysInSnow ((BOUND_VARIABLE_406 BoundSet)) Bool false)
)
sat
(model
; cardinality of BoundSet is 1
(declare-sort BoundSet 0)
; rep: @uc_BoundSet_0
; cardinality of UnboundSet is 1
(declare-sort UnboundSet 0)
(declare-fun groundTerm_4 () UnboundSet)
(define-fun IsInRedCoat ((BOUND_VARIABLE_447 BoundSet)) Bool true)
(define-fun IsInBlueHeadWrap ((BOUND_VARIABLE_447 BoundSet)) Bool true)
(define-fun IsInJeans ((BOUND_VARIABLE_447 BoundSet)) Bool true)
(define-fun IsMakingSnowAngel ((BOUND_VARIABLE_447 BoundSet)) Bool true)
(define-fun IsOutside ((BOUND_VARIABLE_447 BoundSet)) Bool false)
(define-fun PlaysInSnow ((BOUND_VARIABLE_447 BoundSet)) Bool true)
)
